8004
49, 35, 34, 44, 46, 16, 29, 50, 20, 23, 30, 2, 7, 42, 21, 17, 3, 18, 31, 22, 1, 36, 39, 40, 37, 38, 48, 24, 5, 15, 6, 25, 12, 51, 11, 52, 14, 13, 47, 26, 27, 28, 4, 43, 33, 10, 9, 8, 41, 19, 45, 32
